out/bwp_6_12_1_lp.out
8
0 0    0 0
5 5    5 5
3 0    5 2
0 2    2 4
2 5    4 7
2 0    2 1
0 1    1 1
3 3    3 4
4 3    4 4
5 3    5 4
5 6    5 7
0 5    1 7
