out/bwp_6_12_1_lp.log
Tried aggregator 2 times.
MIP Presolve eliminated 17 rows and 6 columns.
MIP Presolve modified 284 coefficients.
Aggregator did 284 substitutions.
Reduced MIP has 1470 rows, 1332 columns, and 3647 nonzeros.
Reduced MIP has 799 binaries, 25 generals, 0 SOSs, and 264 indicators.
Presolve time = 0.01 sec. (4.20 ticks)
Found incumbent of value 26.000000 after 0.02 sec. (8.23 ticks)
Probing fixed 57 vars, tightened 254 bounds.
Probing time = 0.07 sec. (21.41 ticks)
Tried aggregator 3 times.
MIP Presolve eliminated 87 rows and 72 columns.
MIP Presolve modified 556 coefficients.
Aggregator did 482 substitutions.
Reduced MIP has 901 rows, 778 columns, and 2675 nonzeros.
Reduced MIP has 606 binaries, 172 generals, 0 SOSs, and 226 indicators.
Presolve time = 0.01 sec. (5.23 ticks)
Probing time = 0.01 sec. (4.71 ticks)
Tried aggregator 1 time.
Reduced MIP has 901 rows, 778 columns, and 2675 nonzeros.
Reduced MIP has 606 binaries, 172 generals, 0 SOSs, and 226 indicators.
Presolve time = 0.00 sec. (1.39 ticks)
Probing time = 0.01 sec. (2.15 ticks)
Clique table members: 975.
MIP emphasis: balance optimality and feasibility.
MIP search method: dynamic search.
Parallel mode: deterministic, using up to 4 threads.
Root relaxation solution time = 0.00 sec. (2.52 ticks)

        Nodes                                         Cuts/
   Node  Left     Objective  IInf  Best Integer    Best Bound    ItCnt     Gap

*     0+    0                           26.0000        8.0000      295   69.23%
      0     0        8.0000   340       26.0000        8.0000      295   69.23%
      0     0        8.0000   224       26.0000      Cuts: 24      350   69.23%
      0     0        8.0000   264       26.0000     Cuts: 157      475   69.23%
      0     0        8.0000   108       26.0000       Cuts: 9      484   69.23%
      0     0        8.0000    89       26.0000      Cuts: 48      522   69.23%
      0     0        8.0000   105       26.0000      Cuts: 48      579   69.23%

Repeating presolve.
Tried aggregator 2 times.
MIP Presolve eliminated 298 rows and 247 columns.
MIP Presolve modified 412 coefficients.
Aggregator did 15 substitutions.
Reduced MIP has 588 rows, 516 columns, and 1822 nonzeros.
Reduced MIP has 359 binaries, 157 generals, 0 SOSs, and 226 indicators.
Presolve time = 0.01 sec. (2.89 ticks)
Probing fixed 0 vars, tightened 6 bounds.
Probing time = 0.01 sec. (2.63 ticks)
Tried aggregator 1 time.
MIP Presolve modified 12 coefficients.
Reduced MIP has 588 rows, 516 columns, and 1822 nonzeros.
Reduced MIP has 359 binaries, 157 generals, 0 SOSs, and 226 indicators.
Presolve time = 0.00 sec. (0.95 ticks)
Represolve time = 0.02 sec. (7.70 ticks)
Probing time = 0.01 sec. (2.05 ticks)
Clique table members: 300.
MIP emphasis: balance optimality and feasibility.
MIP search method: dynamic search.
Parallel mode: deterministic, using up to 4 threads.
Root relaxation solution time = 0.00 sec. (1.95 ticks)

        Nodes                                         Cuts/
   Node  Left     Objective  IInf  Best Integer    Best Bound    ItCnt     Gap

*     0+    0                           26.0000        8.0000      767   69.23%
      0     0        8.0000   216       26.0000        8.0000      767   69.23%
*     0+    0                            8.0000        8.0000      797    0.00%
      0     0        cutoff              8.0000        8.0000      797    0.00%
Elapsed time = 0.50 sec. (173.11 ticks, tree = 0.00 MB, solutions = 2)

Clique cuts applied:  14
Cover cuts applied:  17
Implied bound cuts applied:  25
Flow cuts applied:  1
Mixed integer rounding cuts applied:  9
Zero-half cuts applied:  24
Gomory fractional cuts applied:  13

Root node processing (before b&c):
  Real time             =    0.50 sec. (173.16 ticks)
Parallel b&c, 4 threads:
  Real time             =    0.00 sec. (0.00 ticks)
  Sync time (average)   =    0.00 sec.
  Wait time (average)   =    0.00 sec.
                          ------------
Total (root+branch&cut) =    0.50 sec. (173.16 ticks)
